proyfinal/src/viki/013/andrea/andrea-localstore/experimentInOfficeAgust.take6/worker_11/aa9e1eae-9237-4457-aba6-d3352cf53040.als.cnf.out
Reading from standard input... Use '--help' for help.
============================[ Problem Statistics ]=============================
|                                                                             |
|  Number of variables:         87638                                         |
|  Number of clauses:          161767                                         |
|  Parse time:                   0.03 s                                       |
|                                                                             |
============================[ Search Statistics ]==============================
| Conflicts |          ORIGINAL         |          LEARNT          | Progress |
|           |    Vars  Clauses Literals |    Limit  Clauses Lit/Cl |          |
===============================================================================
|       100 |   63347   108870   271269 |    39919      100     17 | 27.717 % |
|       250 |   63265   108870   271269 |    43910      246     22 | 27.811 % |
|       475 |   63265   108538   270498 |    48301      471     65 | 27.811 % |
|       812 |   63265   108538   270498 |    53132      808     60 | 27.811 % |
|      1318 |   63265   108538   270498 |    58445     1314     84 | 27.811 % |
|      2077 |   63265   108538   270498 |    64289     2073     91 | 27.811 % |
|      3216 |   63229   108464   270327 |    70718     3210     86 | 27.852 % |
|      4924 |   63192   108240   269807 |    77790     4916     78 | 27.894 % |
|      7486 |   63081   107756   268669 |    85569     7453     71 | 28.021 % |
|     11330 |   63055   107613   268357 |    94126    11063     73 | 28.051 % |
===============================================================================
restarts              : 63
conflicts             : 17064          (8442 /sec)
decisions             : 57447          (0.00 % random) (28422 /sec)
propagations          : 21900503       (10835177 /sec)
conflict literals     : 1130639        (49.79 % deleted)
Memory used           : 32.29 MB
CPU time              : 2.02124 s

UNSATISFIABLE
